65
3 1 2
5 0 2
5 2 3
6 0 3
6 3 4
6 4 5
6 5 4
7 1 3
7 2 3
7 3 4
7 4 3
7 6 5
8 3 1
8 5 1
8 6 1
9 0 5
9 2 4
9 3 5
9 4 5
9 5 3
9 6 5
9 8 4
10 0 3
10 2 3
10 3 2
10 5 3
10 8 2
11 3 3
11 4 3
11 8 3
11 9 3
11 10 1
12 0 1
12 1 2
12 3 2
12 4 5
12 5 5
12 7 5
12 8 2
12 9 1
12 10 2
12 11 5
13 1 1
13 2 1
13 4 2
13 5 5
13 6 4
14 0 1
14 1 1
14 2 4
14 4 2
14 5 2
14 6 4
14 7 4
14 8 4
14 10 5
14 13 5
15 3 1
15 4 1
15 6 5
15 9 4
15 11 4
15 13 3
16 0 2
16 6 2
16 9 2
16 11 4
16 12 4
16 13 1
17 0 3
17 2 4
17 3 1
17 5 5
17 6 2
17 8 3
17 9 5
17 10 5
17 14 5
18 1 1
18 2 2
18 3 5
18 4 5
18 5 1
18 6 3
18 7 4
18 8 5
18 9 1
18 12 5
19 1 5
19 3 3
19 5 5
19 6 5
19 7 1
19 10 2
19 11 3
19 13 5
19 15 5
19 18 5
20 0 3
20 4 5
20 5 3
20 10 5
20 16 5
20 18 5
21 6 1
21 7 5
21 8 3
21 10 3
21 13 5
21 14 5
21 15 3
21 16 1
21 17 4
21 18 5
21 19 2
21 20 3
22 1 1
22 2 3
22 3 5
22 7 3
22 8 3
22 9 1
22 10 2
22 12 4
22 17 1
22 19 3
22 20 2
23 1 4
23 2 3
23 4 1
23 5 5
23 6 1
23 7 5
23 8 4
23 9 1
23 11 1
23 15 1
23 18 1
23 19 2
23 20 1
23 22 1
24 3 1
24 5 1
24 6 5
24 7 2
24 10 1
24 11 4
24 16 5
24 17 5
24 20 3
24 21 2
24 22 4
24 23 3
25 2 1
25 3 3
25 5 3
25 8 2
25 9 3
25 10 3
25 14 2
25 15 5
25 18 5
25 21 2
25 22 3
26 3 2
26 5 1
26 6 3
26 7 1
26 11 2
26 13 5
26 15 4
26 16 2
26 18 1
26 19 4
26 22 1
26 23 2
26 24 1
27 0 4
27 1 2
27 5 1
27 6 5
27 8 1
27 9 1
27 10 3
27 11 5
27 12 3
27 13 5
27 14 1
27 16 4
27 17 5
27 18 5
27 20 1
27 21 5
27 22 1
27 24 5
27 25 3
28 2 3
28 3 4
28 5 1
28 6 4
28 7 5
28 8 4
28 12 4
28 13 4
28 14 5
28 18 5
28 20 3
28 22 5
28 23 1
28 25 1
28 26 2
29 5 2
29 9 3
29 10 2
29 11 4
29 13 5
29 17 3
29 22 3
29 26 2
30 2 5
30 3 4
30 4 1
30 8 4
30 9 1
30 13 4
30 14 5
30 15 3
30 17 4
30 18 1
30 19 5
30 20 1
30 21 3
30 29 2
31 0 4
31 1 5
31 2 1
31 4 5
31 5 3
31 6 5
31 7 3
31 9 5
31 12 3
31 13 1
31 14 3
31 16 5
31 17 4
31 21 2
31 23 5
31 24 4
31 26 3
31 28 3
31 29 3
31 30 2
32 3 4
32 4 5
32 5 1
32 8 4
32 9 3
32 10 3
32 14 3
32 15 5
32 16 1
32 17 4
32 22 3
32 23 2
32 25 3
32 28 4
32 30 4
32 31 1
33 0 5
33 4 2
33 5 3
33 6 2
33 7 1
33 8 5
33 9 2
33 10 1
33 12 2
33 15 3
33 18 5
33 20 1
33 24 4
33 25 2
33 27 1
33 28 3
33 29 3
33 32 2
34 0 2
34 1 4
34 3 3
34 4 2
34 7 1
34 12 5
34 13 4
34 17 5
34 18 3
34 19 4
34 21 4
34 23 1
34 28 5
34 29 5
34 30 5
34 33 3
35 0 1
35 1 4
35 2 3
35 3 4
35 4 3
35 9 4
35 10 2
35 13 4
35 15 1
35 16 2
35 19 2
35 20 5
35 24 2
35 25 1
35 26 4
35 28 1
35 29 1
35 30 4
35 33 1
36 2 5
36 4 4
36 6 1
36 7 2
36 11 2
36 12 1
36 13 1
36 16 5
36 17 3
36 18 3
36 19 3
36 21 2
36 22 3
36 24 1
36 25 1
36 26 4
36 28 3
36 29 2
36 30 5
36 32 5
36 35 2
37 3 3
37 4 5
37 7 2
37 8 4
37 10 3
37 12 2
37 14 5
37 16 3
37 17 4
37 18 3
37 20 1
37 22 3
37 25 5
37 29 3
37 33 2
37 34 5
38 0 3
38 2 3
38 3 5
38 6 2
38 8 1
38 10 5
38 12 1
38 16 3
38 17 2
38 21 3
38 23 2
38 25 1
38 29 3
38 31 1
38 33 5
38 35 2
38 36 3
38 37 2
39 0 5
39 1 1
39 3 1
39 4 3
39 8 5
39 10 3
39 12 2
39 13 2
39 14 3
39 15 1
39 16 5
39 18 5
39 19 1
39 22 1
39 28 5
39 31 4
39 32 2
39 35 2
39 36 4
39 37 4
39 38 2
40 3 3
40 4 1
40 6 4
40 7 5
40 12 2
40 13 1
40 18 2
40 20 3
40 21 2
40 23 5
40 24 3
40 25 2
40 27 1
40 28 4
40 32 5
40 34 3
41 0 4
41 2 1
41 3 3
41 8 2
41 10 5
41 11 2
41 12 2
41 14 2
41 17 2
41 18 1
41 21 2
41 22 1
41 24 3
41 25 2
41 28 1
41 30 2
41 32 5
41 34 4
41 38 2
41 39 3
41 40 5
42 0 1
42 1 2
42 2 5
42 3 2
42 5 1
42 6 4
42 7 3
42 8 5
42 10 1
42 11 3
42 12 3
42 14 3
42 17 1
42 20 2
42 26 5
42 28 5
42 36 1
42 38 4
43 1 2
43 2 5
43 4 2
43 5 2
43 6 4
43 8 4
43 11 2
43 13 4
43 16 1
43 17 4
43 19 3
43 20 3
43 21 1
43 23 3
43 24 1
43 25 1
43 26 2
43 28 5
43 29 5
43 31 1
43 32 2
43 33 3
43 34 2
43 35 1
43 36 5
43 38 4
43 39 5
43 40 2
43 41 4
44 0 1
44 1 5
44 4 5
44 5 3
44 6 1
44 7 2
44 8 3
44 11 2
44 12 4
44 13 5
44 22 1
44 25 1
44 26 2
44 27 4
44 28 3
44 31 3
44 32 1
44 34 4
44 36 2
44 38 4
44 40 1
44 41 2
44 43 3
45 1 5
45 2 5
45 3 4
45 4 4
45 9 2
45 10 4
45 11 4
45 15 2
45 17 3
45 18 3
45 21 5
45 26 5
45 28 2
45 29 4
45 31 2
45 32 3
45 34 2
45 35 3
45 36 3
45 37 2
45 40 3
45 43 5
45 44 4
46 0 2
46 1 5
46 3 1
46 4 1
46 7 1
46 8 2
46 10 4
46 11 3
46 13 2
46 14 5
46 15 5
46 23 1
46 24 2
46 27 1
46 28 2
46 29 3
46 32 3
46 33 1
46 35 4
46 37 1
46 39 5
46 40 1
46 42 1
46 44 5
46 45 2
47 0 5
47 2 1
47 3 4
47 4 4
47 5 3
47 7 3
47 8 4
47 9 1
47 11 5
47 12 4
47 13 2
47 14 2
47 15 1
47 20 4
47 21 5
47 23 2
47 25 2
47 28 4
47 29 1
47 30 1
47 31 1
47 34 5
47 35 3
47 39 2
47 40 5
47 43 2
47 44 2
47 45 3
48 0 2
48 3 4
48 5 5
48 6 4
48 8 1
48 10 3
48 11 5
48 14 3
48 15 3
48 16 2
48 17 2
48 20 5
48 22 1
48 23 3
48 24 4
48 26 3
48 27 3
48 29 2
48 30 2
48 31 3
48 32 1
48 34 1
48 38 2
48 40 5
48 41 2
48 45 4
49 0 3
49 2 1
49 3 3
49 5 2
49 6 4
49 8 3
49 9 5
49 12 5
49 14 4
49 15 1
49 17 2
49 19 4
49 23 4
49 26 1
49 27 5
49 28 4
49 29 1
49 30 5
49 31 3
49 32 4
49 33 1
49 37 3
49 38 5
49 42 4
49 45 4
49 47 2
50 0 3
50 6 5
50 8 4
50 9 3
50 10 1
50 12 1
50 13 5
50 16 2
50 25 5
50 28 2
50 33 3
50 34 3
50 41 5
50 43 3
50 45 5
51 1 3
51 2 3
51 3 4
51 5 1
51 8 5
51 9 3
51 12 3
51 13 2
51 14 1
51 15 4
51 16 5
51 19 4
51 22 3
51 23 1
51 25 4
51 26 3
51 27 2
51 32 1
51 34 2
51 35 5
51 36 4
51 39 5
51 45 2
51 46 3
51 48 1
52 0 4
52 1 4
52 3 1
52 6 5
52 7 3
52 9 5
52 10 4
52 15 2
52 16 3
52 17 1
52 19 2
52 21 2
52 22 2
52 24 1
52 28 2
52 32 1
52 34 4
52 43 2
52 44 4
52 47 4
52 48 5
52 51 3
53 0 1
53 1 5
53 2 4
53 4 4
53 8 2
53 10 1
53 12 3
53 14 1
53 16 2
53 18 2
53 20 5
53 22 4
53 24 1
53 25 2
53 27 1
53 28 1
53 30 5
53 31 2
53 33 1
53 34 5
53 35 4
53 37 5
53 38 3
53 40 2
53 44 2
53 48 5
53 51 4
53 52 3
54 0 3
54 3 3
54 4 3
54 6 3
54 7 5
54 8 5
54 10 3
54 15 5
54 16 4
54 18 4
54 19 2
54 20 4
54 21 1
54 24 3
54 26 5
54 28 5
54 30 3
54 32 2
54 33 1
54 34 5
54 36 2
54 37 5
54 41 3
54 48 5
54 49 4
54 52 5
55 3 5
55 4 1
55 6 1
55 8 2
55 9 4
55 10 5
55 11 4
55 12 5
55 13 4
55 15 3
55 17 4
55 18 2
55 19 1
55 21 3
55 24 4
55 27 1
55 30 4
55 31 1
55 36 3
55 37 3
55 44 3
55 45 1
55 50 1
55 52 4
55 53 1
55 54 1
56 4 1
56 5 1
56 10 3
56 11 2
56 13 2
56 14 2
56 17 2
56 19 3
56 21 3
56 22 2
56 24 1
56 28 5
56 30 4
56 31 3
56 32 2
56 35 4
56 36 4
56 38 5
56 41 3
56 42 5
56 45 1
56 48 4
56 50 4
56 51 2
57 1 5
57 7 4
57 10 5
57 16 5
57 20 5
57 21 4
57 23 2
57 26 2
57 28 2
57 36 5
57 37 5
57 38 2
57 39 1
57 41 4
57 42 1
57 44 4
57 45 5
57 46 3
57 47 4
57 48 3
57 49 3
57 50 5
57 53 4
57 56 3
58 0 5
58 1 2
58 3 3
58 8 5
58 9 1
58 10 4
58 12 5
58 13 1
58 16 5
58 17 4
58 20 5
58 22 4
58 23 2
58 24 2
58 25 4
58 26 2
58 30 5
58 32 5
58 35 3
58 37 1
58 38 4
58 39 1
58 40 2
58 42 3
58 44 4
58 45 5
58 48 5
58 49 1
58 51 4
58 54 1
58 55 1
59 0 3
59 2 5
59 5 5
59 6 3
59 8 3
59 9 2
59 17 3
59 19 1
59 23 5
59 28 4
59 31 1
59 36 5
59 39 1
59 40 3
59 41 4
59 42 3
59 44 1
59 48 1
59 49 1
59 50 5
59 51 2
59 52 1
59 55 5
59 57 2
60 1 2
60 3 3
60 6 1
60 8 3
60 10 4
60 12 5
60 15 5
60 17 5
60 18 2
60 21 5
60 23 2
60 26 5
60 27 1
60 28 2
60 29 2
60 31 5
60 32 2
60 34 2
60 35 4
60 36 4
60 37 5
60 38 4
60 43 1
60 44 4
60 48 3
60 49 2
60 52 5
60 53 2
60 54 1
60 57 2
60 58 1
61 3 2
61 4 4
61 13 1
61 14 3
61 15 5
61 18 5
61 19 2
61 21 3
61 22 2
61 24 2
61 25 2
61 31 4
61 32 3
61 33 1
61 34 3
61 38 1
61 41 5
61 42 5
61 45 4
61 47 4
61 48 1
61 50 1
61 52 4
61 53 5
61 60 1
62 1 4
62 2 5
62 3 4
62 5 5
62 6 4
62 8 1
62 9 3
62 11 4
62 13 4
62 23 5
62 25 2
62 29 2
62 30 2
62 32 2
62 34 2
62 35 4
62 37 2
62 38 4
62 43 1
62 47 2
62 48 5
62 49 1
62 52 5
62 53 5
62 55 4
62 56 2
62 57 4
62 59 4
63 4 3
63 5 1
63 6 1
63 8 5
63 9 5
63 13 2
63 16 4
63 17 5
63 18 2
63 19 5
63 20 2
63 21 1
63 25 1
63 30 5
63 31 5
63 32 4
63 34 5
63 37 1
63 40 3
63 43 3
63 44 3
63 45 1
63 46 2
63 47 4
63 48 1
63 51 1
63 53 4
63 57 4
63 62 4
64 2 2
64 3 3
64 4 4
64 7 5
64 8 5
64 10 3
64 12 1
64 14 3
64 19 5
64 20 4
64 21 5
64 22 1
64 26 1
64 27 3
64 28 4
64 29 5
64 30 4
64 35 5
64 36 5
64 37 4
64 41 2
64 47 4
64 53 2
64 55 1
64 58 4
64 61 1
64 62 3
